p cnf 619 1013              
-2 -1 -53 0
53 -57 0
-1 54 0
-2 54 0
1 2 -54 0
-54 -3 -55 0
55 -57 0
3 54 -56 0
56 -57 0
57 -133 0
-5 -4 -58 0
58 -62 0
-4 59 0
-5 59 0
4 5 -59 0
-59 -6 -60 0
60 -62 0
6 59 -61 0
61 -62 0
62 -133 0
-8 -7 -63 0
63 -67 0
-7 64 0
-8 64 0
7 8 -64 0
-64 -9 -65 0
65 -67 0
9 64 -66 0
66 -67 0
67 -133 0
-11 -10 -68 0
68 -72 0
-10 69 0
-11 69 0
10 11 -69 0
-69 -12 -70 0
70 -72 0
12 69 -71 0
71 -72 0
72 -133 0
-14 -13 -73 0
73 -77 0
-13 74 0
-14 74 0
13 14 -74 0
-74 -15 -75 0
75 -77 0
15 74 -76 0
76 -77 0
77 -133 0
-17 -16 -78 0
78 -82 0
-16 79 0
-17 79 0
16 17 -79 0
-79 -18 -80 0
80 -82 0
18 79 -81 0
81 -82 0
82 -133 0
-20 -19 -83 0
83 -87 0
-19 84 0
-20 84 0
19 20 -84 0
-84 -21 -85 0
85 -87 0
21 84 -86 0
86 -87 0
87 -133 0
-23 -22 -88 0
88 -92 0
-22 89 0
-23 89 0
22 23 -89 0
-89 -24 -90 0
90 -92 0
24 89 -91 0
91 -92 0
92 -133 0
-26 -25 -93 0
93 -97 0
-25 94 0
-26 94 0
25 26 -94 0
-94 -27 -95 0
95 -97 0
27 94 -96 0
96 -97 0
97 -133 0
-29 -28 -98 0
98 -102 0
-28 99 0
-29 99 0
28 29 -99 0
-99 -30 -100 0
100 -102 0
30 99 -101 0
101 -102 0
102 -133 0
-32 -31 -103 0
103 -107 0
-31 104 0
-32 104 0
31 32 -104 0
-104 -33 -105 0
105 -107 0
33 104 -106 0
106 -107 0
107 -133 0
-35 -34 -108 0
108 -112 0
-34 109 0
-35 109 0
34 35 -109 0
-109 -36 -110 0
110 -112 0
36 109 -111 0
111 -112 0
112 -133 0
-38 -37 -113 0
113 -117 0
-37 114 0
-38 114 0
37 38 -114 0
-114 -39 -115 0
115 -117 0
39 114 -116 0
116 -117 0
117 -133 0
-41 -40 -118 0
118 -122 0
-40 119 0
-41 119 0
40 41 -119 0
-119 -42 -120 0
120 -122 0
42 119 -121 0
121 -122 0
122 -133 0
-44 -43 -123 0
123 -127 0
-43 124 0
-44 124 0
43 44 -124 0
-124 -45 -125 0
125 -127 0
45 124 -126 0
126 -127 0
127 -133 0
-47 -46 -128 0
128 -132 0
-46 129 0
-47 129 0
46 47 -129 0
-129 -48 -130 0
130 -132 0
48 129 -131 0
131 -132 0
132 -133 0
133 -266 0
-50 -49 -134 0
134 -140 0
-49 135 0
-50 135 0
49 50 -135 0
-135 -51 -136 0
136 -140 0
-51 137 0
-135 137 0
51 135 -137 0
-137 -52 -138 0
138 -140 0
52 137 -139 0
139 -140 0
140 -266 0
46 -198 0
52 -198 0
-46 -52 198 0
37 -249 0
49 -249 0
40 -252 0
50 -252 0
43 -255 0
51 -255 0
198 249 252 255 -258 0
258 261 0
-10 -49 162 0
-162 210 0
-22 -50 174 0
-174 210 0
-34 -51 186 0
-186 210 0
-198 210 0
-210 261 0
47 -199 0
52 -199 0
-47 -52 199 0
38 -250 0
49 -250 0
41 -253 0
50 -253 0
44 -256 0
51 -256 0
199 250 253 256 -259 0
259 262 0
-11 -49 163 0
-163 211 0
-23 -50 175 0
-175 211 0
-35 -51 187 0
-187 211 0
-199 211 0
-211 262 0
48 -200 0
52 -200 0
-48 -52 200 0
39 -251 0
49 -251 0
42 -254 0
50 -254 0
45 -257 0
51 -257 0
200 251 254 257 -260 0
260 263 0
-12 -49 164 0
-164 212 0
-24 -50 176 0
-176 212 0
-36 -51 188 0
-188 212 0
-200 212 0
-212 263 0
-261 -262 -263 264 0
-264 -265 0
31 -183 0
51 -183 0
-31 -51 183 0
25 -233 0
49 -233 0
28 -236 0
50 -236 0
34 -239 0
52 -239 0
183 233 236 239 -242 0
242 245 0
-7 -49 159 0
-159 207 0
-19 -50 171 0
-171 207 0
-183 207 0
-43 -52 195 0
-195 207 0
-207 245 0
32 -184 0
51 -184 0
-32 -51 184 0
26 -234 0
49 -234 0
29 -237 0
50 -237 0
35 -240 0
52 -240 0
184 234 237 240 -243 0
243 246 0
-8 -49 160 0
-160 208 0
-20 -50 172 0
-172 208 0
-184 208 0
-44 -52 196 0
-196 208 0
-208 246 0
33 -185 0
51 -185 0
-33 -51 185 0
27 -235 0
49 -235 0
30 -238 0
50 -238 0
36 -241 0
52 -241 0
185 235 238 241 -244 0
244 247 0
-9 -49 161 0
-161 209 0
-21 -50 173 0
-173 209 0
-185 209 0
-45 -52 197 0
-197 209 0
-209 247 0
-245 -246 -247 248 0
-248 -265 0
16 -168 0
50 -168 0
-16 -50 168 0
13 -217 0
49 -217 0
19 -220 0
51 -220 0
22 -223 0
52 -223 0
168 217 220 223 -226 0
226 229 0
-4 -49 156 0
-156 204 0
-168 204 0
-28 -51 180 0
-180 204 0
-40 -52 192 0
-192 204 0
-204 229 0
17 -169 0
50 -169 0
-17 -50 169 0
14 -218 0
49 -218 0
20 -221 0
51 -221 0
23 -224 0
52 -224 0
169 218 221 224 -227 0
227 230 0
-5 -49 157 0
-157 205 0
-169 205 0
-29 -51 181 0
-181 205 0
-41 -52 193 0
-193 205 0
-205 230 0
18 -170 0
50 -170 0
-18 -50 170 0
15 -219 0
49 -219 0
21 -222 0
51 -222 0
24 -225 0
52 -225 0
170 219 222 225 -228 0
228 231 0
-6 -49 158 0
-158 206 0
-170 206 0
-30 -51 182 0
-182 206 0
-42 -52 194 0
-194 206 0
-206 231 0
-229 -230 -231 232 0
-232 -265 0
1 -141 0
49 -141 0
-1 -49 141 0
4 -144 0
50 -144 0
7 -147 0
51 -147 0
10 -150 0
52 -150 0
141 144 147 150 -153 0
153 213 0
-141 201 0
-13 -50 165 0
-165 201 0
-25 -51 177 0
-177 201 0
-37 -52 189 0
-189 201 0
-201 213 0
2 -142 0
49 -142 0
-2 -49 142 0
5 -145 0
50 -145 0
8 -148 0
51 -148 0
11 -151 0
52 -151 0
142 145 148 151 -154 0
154 214 0
-142 202 0
-14 -50 166 0
-166 202 0
-26 -51 178 0
-178 202 0
-38 -52 190 0
-190 202 0
-202 214 0
3 -143 0
49 -143 0
-3 -49 143 0
6 -146 0
50 -146 0
9 -149 0
51 -149 0
12 -152 0
52 -152 0
143 146 149 152 -155 0
155 215 0
-143 203 0
-15 -50 167 0
-167 203 0
-27 -51 179 0
-179 203 0
-39 -52 191 0
-191 203 0
-203 215 0
-213 -214 -215 216 0
-216 -265 0
265 -266 0
-1 2 -267 0
267 -329 0
-1 -2 268 0
1 2 268 0
-2 2 268 0
-4 5 -269 0
-268 269 -270 0
270 -329 0
-4 -5 271 0
4 5 271 0
-5 5 271 0
-268 -271 272 0
-7 8 -273 0
-272 273 -274 0
274 -329 0
-7 -8 275 0
7 8 275 0
-8 8 275 0
-272 -275 276 0
-10 11 -277 0
-276 277 -278 0
278 -329 0
-10 -11 279 0
10 11 279 0
-11 11 279 0
-276 -279 280 0
-13 14 -281 0
-280 281 -282 0
282 -329 0
-13 -14 283 0
13 14 283 0
-14 14 283 0
-280 -283 284 0
-16 17 -285 0
-284 285 -286 0
286 -329 0
-16 -17 287 0
16 17 287 0
-17 17 287 0
-284 -287 288 0
-19 20 -289 0
-288 289 -290 0
290 -329 0
-19 -20 291 0
19 20 291 0
-20 20 291 0
-288 -291 292 0
-22 23 -293 0
-292 293 -294 0
294 -329 0
-22 -23 295 0
22 23 295 0
-23 23 295 0
-292 -295 296 0
-25 26 -297 0
-296 297 -298 0
298 -329 0
-25 -26 299 0
25 26 299 0
-26 26 299 0
-296 -299 300 0
-28 29 -301 0
-300 301 -302 0
302 -329 0
-28 -29 303 0
28 29 303 0
-29 29 303 0
-300 -303 304 0
-31 32 -305 0
-304 305 -306 0
306 -329 0
-31 -32 307 0
31 32 307 0
-32 32 307 0
-304 -307 308 0
-34 35 -309 0
-308 309 -310 0
310 -329 0
-34 -35 311 0
34 35 311 0
-35 35 311 0
-308 -311 312 0
-37 38 -313 0
-312 313 -314 0
314 -329 0
-37 -38 315 0
37 38 315 0
-38 38 315 0
-312 -315 316 0
-40 41 -317 0
-316 317 -318 0
318 -329 0
-40 -41 319 0
40 41 319 0
-41 41 319 0
-316 -319 320 0
-43 44 -321 0
-320 321 -322 0
322 -329 0
-43 -44 323 0
43 44 323 0
-44 44 323 0
-320 -323 324 0
-46 47 -325 0
-324 325 -326 0
326 -329 0
329 -618 0
-2 3 -330 0
330 -392 0
-2 -3 331 0
2 3 331 0
-3 3 331 0
-5 6 -332 0
-331 332 -333 0
333 -392 0
-5 -6 334 0
5 6 334 0
-6 6 334 0
-331 -334 335 0
-8 9 -336 0
-335 336 -337 0
337 -392 0
-8 -9 338 0
8 9 338 0
-9 9 338 0
-335 -338 339 0
-11 12 -340 0
-339 340 -341 0
341 -392 0
-11 -12 342 0
11 12 342 0
-12 12 342 0
-339 -342 343 0
-14 15 -344 0
-343 344 -345 0
345 -392 0
-14 -15 346 0
14 15 346 0
-15 15 346 0
-343 -346 347 0
-17 18 -348 0
-347 348 -349 0
349 -392 0
-17 -18 350 0
17 18 350 0
-18 18 350 0
-347 -350 351 0
-20 21 -352 0
-351 352 -353 0
353 -392 0
-20 -21 354 0
20 21 354 0
-21 21 354 0
-351 -354 355 0
-23 24 -356 0
-355 356 -357 0
357 -392 0
-23 -24 358 0
23 24 358 0
-24 24 358 0
-355 -358 359 0
-26 27 -360 0
-359 360 -361 0
361 -392 0
-26 -27 362 0
26 27 362 0
-27 27 362 0
-359 -362 363 0
-29 30 -364 0
-363 364 -365 0
365 -392 0
-29 -30 366 0
29 30 366 0
-30 30 366 0
-363 -366 367 0
-32 33 -368 0
-367 368 -369 0
369 -392 0
-32 -33 370 0
32 33 370 0
-33 33 370 0
-367 -370 371 0
-35 36 -372 0
-371 372 -373 0
373 -392 0
-35 -36 374 0
35 36 374 0
-36 36 374 0
-371 -374 375 0
-38 39 -376 0
-375 376 -377 0
377 -392 0
-38 -39 378 0
38 39 378 0
-39 39 378 0
-375 -378 379 0
-41 42 -380 0
-379 380 -381 0
381 -392 0
-41 -42 382 0
41 42 382 0
-42 42 382 0
-379 -382 383 0
-44 45 -384 0
-383 384 -385 0
385 -392 0
-44 -45 386 0
44 45 386 0
-45 45 386 0
-383 -386 387 0
-47 48 -388 0
-387 388 -389 0
389 -392 0
392 -618 0
-49 50 -393 0
393 -467 0
-49 -50 394 0
49 50 394 0
-50 50 394 0
-1 16 -395 0
-394 395 -396 0
396 -467 0
-1 -16 397 0
1 16 397 0
-16 16 397 0
-394 -397 398 0
-2 17 -399 0
-398 399 -400 0
400 -467 0
-2 -17 401 0
2 17 401 0
-17 17 401 0
-398 -401 402 0
-3 18 -403 0
-402 403 -404 0
404 -467 0
-3 -18 405 0
3 18 405 0
-18 18 405 0
-402 -405 406 0
-4 13 -407 0
-406 407 -408 0
408 -467 0
-4 -13 409 0
4 13 409 0
-13 13 409 0
-406 -409 410 0
-5 14 -411 0
-410 411 -412 0
412 -467 0
-5 -14 413 0
5 14 413 0
-14 14 413 0
-410 -413 414 0
-6 15 -415 0
-414 415 -416 0
416 -467 0
-6 -15 417 0
6 15 417 0
-15 15 417 0
-414 -417 418 0
-7 19 -419 0
-418 419 -420 0
420 -467 0
-7 -19 421 0
7 19 421 0
-19 19 421 0
-418 -421 422 0
-8 20 -423 0
-422 423 -424 0
424 -467 0
-8 -20 425 0
8 20 425 0
-20 20 425 0
-422 -425 426 0
-9 21 -427 0
-426 427 -428 0
428 -467 0
-9 -21 429 0
9 21 429 0
-21 21 429 0
-426 -429 430 0
-10 22 -431 0
-430 431 -432 0
432 -467 0
-10 -22 433 0
10 22 433 0
-22 22 433 0
-430 -433 434 0
-11 23 -435 0
-434 435 -436 0
436 -467 0
-11 -23 437 0
11 23 437 0
-23 23 437 0
-434 -437 438 0
-12 24 -439 0
-438 439 -440 0
440 -467 0
-12 -24 441 0
12 24 441 0
-24 24 441 0
-438 -441 442 0
-25 28 -443 0
-442 443 -444 0
444 -467 0
-25 -28 445 0
25 28 445 0
-28 28 445 0
-442 -445 446 0
-26 29 -447 0
-446 447 -448 0
448 -467 0
-26 -29 449 0
26 29 449 0
-29 29 449 0
-446 -449 450 0
-27 30 -451 0
-450 451 -452 0
452 -467 0
-27 -30 453 0
27 30 453 0
-30 30 453 0
-450 -453 454 0
-37 40 -455 0
-454 455 -456 0
456 -467 0
-37 -40 457 0
37 40 457 0
-40 40 457 0
-454 -457 458 0
-38 41 -459 0
-458 459 -460 0
460 -467 0
-38 -41 461 0
38 41 461 0
-41 41 461 0
-458 -461 462 0
-39 42 -463 0
-462 463 -464 0
464 -467 0
467 -618 0
-50 51 -468 0
468 -542 0
-50 -51 469 0
50 51 469 0
-51 51 469 0
-4 7 -470 0
-469 470 -471 0
471 -542 0
-4 -7 472 0
4 7 472 0
-7 7 472 0
-469 -472 473 0
-5 8 -474 0
-473 474 -475 0
475 -542 0
-5 -8 476 0
5 8 476 0
-8 8 476 0
-473 -476 477 0
-6 9 -478 0
-477 478 -479 0
479 -542 0
-6 -9 480 0
6 9 480 0
-9 9 480 0
-477 -480 481 0
-13 25 -482 0
-481 482 -483 0
483 -542 0
-13 -25 484 0
13 25 484 0
-25 25 484 0
-481 -484 485 0
-14 26 -486 0
-485 486 -487 0
487 -542 0
-14 -26 488 0
14 26 488 0
-26 26 488 0
-485 -488 489 0
-15 27 -490 0
-489 490 -491 0
491 -542 0
-15 -27 492 0
15 27 492 0
-27 27 492 0
-489 -492 493 0
-16 31 -494 0
-493 494 -495 0
495 -542 0
-16 -31 496 0
16 31 496 0
-31 31 496 0
-493 -496 497 0
-17 32 -498 0
-497 498 -499 0
499 -542 0
-17 -32 500 0
17 32 500 0
-32 32 500 0
-497 -500 501 0
-18 33 -502 0
-501 502 -503 0
503 -542 0
-18 -33 504 0
18 33 504 0
-33 33 504 0
-501 -504 505 0
-19 28 -506 0
-505 506 -507 0
507 -542 0
-19 -28 508 0
19 28 508 0
-28 28 508 0
-505 -508 509 0
-20 29 -510 0
-509 510 -511 0
511 -542 0
-20 -29 512 0
20 29 512 0
-29 29 512 0
-509 -512 513 0
-21 30 -514 0
-513 514 -515 0
515 -542 0
-21 -30 516 0
21 30 516 0
-30 30 516 0
-513 -516 517 0
-22 34 -518 0
-517 518 -519 0
519 -542 0
-22 -34 520 0
22 34 520 0
-34 34 520 0
-517 -520 521 0
-23 35 -522 0
-521 522 -523 0
523 -542 0
-23 -35 524 0
23 35 524 0
-35 35 524 0
-521 -524 525 0
-24 36 -526 0
-525 526 -527 0
527 -542 0
-24 -36 528 0
24 36 528 0
-36 36 528 0
-525 -528 529 0
-40 43 -530 0
-529 530 -531 0
531 -542 0
-40 -43 532 0
40 43 532 0
-43 43 532 0
-529 -532 533 0
-41 44 -534 0
-533 534 -535 0
535 -542 0
-41 -44 536 0
41 44 536 0
-44 44 536 0
-533 -536 537 0
-42 45 -538 0
-537 538 -539 0
539 -542 0
542 -618 0
-51 52 -543 0
543 -617 0
-51 -52 544 0
51 52 544 0
-52 52 544 0
-7 10 -545 0
-544 545 -546 0
546 -617 0
-7 -10 547 0
7 10 547 0
-10 10 547 0
-544 -547 548 0
-8 11 -549 0
-548 549 -550 0
550 -617 0
-8 -11 551 0
8 11 551 0
-11 11 551 0
-548 -551 552 0
-9 12 -553 0
-552 553 -554 0
554 -617 0
-9 -12 555 0
9 12 555 0
-12 12 555 0
-552 -555 556 0
-19 22 -557 0
-556 557 -558 0
558 -617 0
-19 -22 559 0
19 22 559 0
-22 22 559 0
-556 -559 560 0
-20 23 -561 0
-560 561 -562 0
562 -617 0
-20 -23 563 0
20 23 563 0
-23 23 563 0
-560 -563 564 0
-21 24 -565 0
-564 565 -566 0
566 -617 0
-21 -24 567 0
21 24 567 0
-24 24 567 0
-564 -567 568 0
-25 37 -569 0
-568 569 -570 0
570 -617 0
-25 -37 571 0
25 37 571 0
-37 37 571 0
-568 -571 572 0
-26 38 -573 0
-572 573 -574 0
574 -617 0
-26 -38 575 0
26 38 575 0
-38 38 575 0
-572 -575 576 0
-27 39 -577 0
-576 577 -578 0
578 -617 0
-27 -39 579 0
27 39 579 0
-39 39 579 0
-576 -579 580 0
-28 40 -581 0
-580 581 -582 0
582 -617 0
-28 -40 583 0
28 40 583 0
-40 40 583 0
-580 -583 584 0
-29 41 -585 0
-584 585 -586 0
586 -617 0
-29 -41 587 0
29 41 587 0
-41 41 587 0
-584 -587 588 0
-30 42 -589 0
-588 589 -590 0
590 -617 0
-30 -42 591 0
30 42 591 0
-42 42 591 0
-588 -591 592 0
-31 46 -593 0
-592 593 -594 0
594 -617 0
-31 -46 595 0
31 46 595 0
-46 46 595 0
-592 -595 596 0
-32 47 -597 0
-596 597 -598 0
598 -617 0
-32 -47 599 0
32 47 599 0
-47 47 599 0
-596 -599 600 0
-33 48 -601 0
-600 601 -602 0
602 -617 0
-33 -48 603 0
33 48 603 0
-48 48 603 0
-600 -603 604 0
-34 43 -605 0
-604 605 -606 0
606 -617 0
-34 -43 607 0
34 43 607 0
-43 43 607 0
-604 -607 608 0
-35 44 -609 0
-608 609 -610 0
610 -617 0
-35 -44 611 0
35 44 611 0
-44 44 611 0
-608 -611 612 0
-36 45 -613 0
-612 613 -614 0
614 -617 0
617 -618 0
266 0
618 0
